certificates/rado_a6_c136_N23.cnf
c Rad2 upper bound instance: x1 + 6*x2 - x3 = 136, interval [1,23]
p cnf 23 122
1 3 23 0
-1 -3 -23 0
2 4 23 0
-2 -4 -23 0
3 5 23 0
-3 -5 -23 0
4 6 23 0
-4 -6 -23 0
1 5 22 0
-1 -5 -22 0
5 7 23 0
-5 -7 -23 0
2 6 22 0
-2 -6 -22 0
6 8 23 0
-6 -8 -23 0
3 7 22 0
-3 -7 -22 0
7 9 23 0
-7 -9 -23 0
4 8 22 0
-4 -8 -22 0
8 10 23 0
-8 -10 -23 0
5 9 22 0
-5 -9 -22 0
9 11 23 0
-9 -11 -23 0
6 10 22 0
-6 -10 -22 0
10 12 23 0
-10 -12 -23 0
1 11 21 0
-1 -11 -21 0
7 11 22 0
-7 -11 -22 0
11 13 23 0
-11 -13 -23 0
2 12 21 0
-2 -12 -21 0
8 12 22 0
-8 -12 -22 0
12 14 23 0
-12 -14 -23 0
3 13 21 0
-3 -13 -21 0
9 13 22 0
-9 -13 -22 0
13 15 23 0
-13 -15 -23 0
4 14 21 0
-4 -14 -21 0
10 14 22 0
-10 -14 -22 0
14 16 23 0
-14 -16 -23 0
5 15 21 0
-5 -15 -21 0
11 15 22 0
-11 -15 -22 0
15 17 23 0
-15 -17 -23 0
6 16 21 0
-6 -16 -21 0
12 16 22 0
-12 -16 -22 0
16 18 23 0
-16 -18 -23 0
1 17 20 0
-1 -17 -20 0
7 17 21 0
-7 -17 -21 0
13 17 22 0
-13 -17 -22 0
17 19 23 0
-17 -19 -23 0
2 18 20 0
-2 -18 -20 0
8 18 21 0
-8 -18 -21 0
14 18 22 0
-14 -18 -22 0
18 20 23 0
-18 -20 -23 0
3 19 20 0
-3 -19 -20 0
9 19 21 0
-9 -19 -21 0
15 19 22 0
-15 -19 -22 0
19 21 23 0
-19 -21 -23 0
4 20 0
-4 -20 0
10 20 21 0
-10 -20 -21 0
16 20 22 0
-16 -20 -22 0
20 22 23 0
-20 -22 -23 0
5 20 21 0
-5 -20 -21 0
11 21 0
-11 -21 0
17 21 22 0
-17 -21 -22 0
21 23 0
-21 -23 0
6 20 22 0
-6 -20 -22 0
12 21 22 0
-12 -21 -22 0
18 22 0
-18 -22 0
1 19 23 0
-1 -19 -23 0
7 20 23 0
-7 -20 -23 0
13 21 23 0
-13 -21 -23 0
19 22 23 0
-19 -22 -23 0
