certificates/rado_a6_c136_N23.drat
-23 0
21 0
-11 0
9 0
13 0
-19 0
-3 0
-22 0
17 0
20 0
15 0
1 0
0
